instances/tuning-use-case-1/oven_scheduling.minizinc_instance_0112-17.51.19.dat
LengthSchedulingHorizon=2671;
nAttributes=5;
SetupCosts=[[0, 0, 0, 0, 0], [11, 3, 11, 5, 14], [14, 23, 7, 11, 5], [0, 5, 15, 24, 20], [7, 7, 23, 17, 2], [10, 0, 23, 20, 19]];
SetupTimes=[[0, 0, 0, 0, 0], [25, 21, 23, 17, 5], [9, 16, 20, 23, 8], [19, 7, 23, 10, 22], [6, 0, 0, 23, 12], [4, 7, 9, 6, 3]];
nMachines=2;
MinCap=[0, 0];
MaxCap=[38, 25];

initState=[1, 5];
nShifts=2;
ShiftStartTimes = [[1788, 2368], [1004, 1693]];
ShiftEndTimes = [[2304, 2594], [1531, 2065]];
nJobs=10;
EligibleMachines = [{1, 2}, {1}, {1, 2}, {1}, {1}, {2}, {1, 2}, {1, 2}, {1, 2}, {1}];
EarliestStart=[39, 29, 31, 8, 6, 22, 18, 8, 7, 26];
LatestEnd=[100, 51, 80, 76, 32, 59, 51, 96, 89, 111];
MinTime=[47, 18, 46, 43, 26, 37, 20, 47, 78, 46];
MaxTime=[53, 99, 51, 75, 90, 68, 58, 97, 90, 57];
JobSize=[3, 4, 2, 5, 5, 5, 3, 1, 5, 2];
Attribute=[3, 3, 4, 3, 1, 2, 5, 1, 4, 5];

upper_bound_integer_objective=25830000;
mult_factor_total_runtime=2400;
mult_factor_finished_toolate=2460000;
mult_factor_total_setuptimes=0;
mult_factor_total_setupcosts=1025;
running_time_bound=408;
min_duration=18;
max_duration=78;
max_setup_time=25;
max_setup_cost=24;
